/*********************************************
 * OPL 12.6.0.0 Data
 * Author: Adrian Rodriguez Bazaga, Pau Rodriguez Esmerats
 * Creation Date: 21/11/2017 at 20:50:29
 *********************************************/

nNurses=124;
maxConsec=2;
maxPresence=7;
maxHours=5;
minHours=1;
demand= [27 30 45 45 30 45 45 31 33 20 2 5 5 7 8 6 8 5 6 2 27 45 21 36  ];
